30 61
29
11 5 0 0
11 4 0 5
10 19 20 0
10 7 0 9
9 16 11 0
9 9 0 16
8 5 9 16
7 25 23 19
7 13 10 21
7 12 23 44
7 7 10 34
7 5 23 56
6 24 0 37
6 18 12 42
6 11 17 19
6 10 17 30
6 5 6 54
5 21 18 40
4 23 6 31
4 10 0 27
4 2 0 25
4 2 6 59
4 1 10 60
3 6 7 25
3 5 4 25
2 12 10 41
2 7 4 30
2 1 17 16
1 4 10 9

301
True
NOT_OPTIMAL